
Gurobi 11.0.3 (linux64) logging started Mon Aug 25 16:17:30 2025

Set parameter LogFile to value "/home/yihong/Coding/OR_SUC/SUC_epstheta_results_bigM100000_thread4/case24_ieee_rts_theta0.001_epsilon0.2_gurobi_seed90000_num_gen100_N_WDR50_load_scaling_factor1_ori_eps_T3quadra_cost_bc1.03.txt"
Set parameter TimeLimit to value 3600
Gurobi Optimizer version 11.0.3 build v11.0.3rc0 (linux64 - "Ubuntu 20.04.6 LTS")

CPU model: AMD EPYC 7532 32-Core Processor, instruction set [SSE2|AVX|AVX2]
Thread count: 64 physical cores, 128 logical processors, using up to 4 threads

Academic license 2399124 - for non-commercial use only - registered to yi___@ed.ac.uk
Optimize a model with 7879 rows, 3771 columns and 289294 nonzeros
Model fingerprint: 0xf78d9290
Model has 300 quadratic constraints
Variable types: 3471 continuous, 300 integer (300 binary)
Coefficient statistics:
  Matrix range     [3e-04, 3e+03]
  QMatrix range    [2e-03, 8e-03]
  QLMatrix range   [1e-01, 6e+01]
  Objective range  [1e+00, 1e+00]
  Bounds range     [1e+00, 1e+00]
  RHS range        [5e-02, 9e+03]
Presolve removed 6753 rows and 1769 columns
Presolve time: 0.07s
Presolved: 1126 rows, 2002 columns, 9393 nonzeros
Presolved model has 300 quadratic constraint(s)
Variable types: 1702 continuous, 300 integer (300 binary)

Root relaxation: objective 2.225352e+03, 816 iterations, 0.01 seconds (0.01 work units)

    Nodes    |    Current Node    |     Objective Bounds      |     Work
 Expl Unexpl |  Obj  Depth IntInf | Incumbent    BestBd   Gap | It/Node Time

     0     0 2225.35221    0    9          - 2225.35221      -     -    0s
     0     0 25433.3695    0  105          - 25433.3695      -     -    0s
     0     0 25435.6320    0  105          - 25435.6320      -     -    0s
     0     0 71568.2412    0   51          - 71568.2412      -     -    0s
     0     0 71570.4949    0   51          - 71570.4949      -     -    0s
     0     0 71608.2467    0   15          - 71608.2467      -     -    0s
     0     0 71608.2760    0   15          - 71608.2760      -     -    0s
     0     0 71608.2760    0   15          - 71608.2760      -     -    0s
     0     2 71608.2760    0   15          - 71608.2760      -     -    1s
H   63    64                    71634.626419 71612.9266  0.03%  11.5    1s
*   63    64              15    71634.626419 71612.9266  0.03%  11.5    1s

Cutting planes:
  Gomory: 21
  Implied bound: 61
  MIR: 27
  Flow cover: 98

Explored 71 nodes (2979 simplex iterations) in 1.28 seconds (0.96 work units)
Thread count was 4 (of 128 available processors)

Solution count 2: 71634.6 71634.6 

Optimal solution found (tolerance 1.00e-03)
Warning: max constraint violation (9.6361e-07) exceeds tolerance
Best objective 7.163462641846e+04, best bound 7.161292660267e+04, gap 0.0303%

Gurobi 11.0.3 (linux64) logging started Mon Aug 25 16:17:31 2025

Set parameter LogFile to value "/home/yihong/Coding/OR_SUC/SUC_epstheta_results_bigM100000_thread4/case24_ieee_rts_theta0.001_epsilon0.2_gurobi_seed90000_num_gen100_N_WDR50_load_scaling_factor1_ori_eps_T3quadra_cost_bc1.03.txt"
Set parameter TimeLimit to value 3600
Gurobi Optimizer version 11.0.3 build v11.0.3rc0 (linux64 - "Ubuntu 20.04.6 LTS")

CPU model: AMD EPYC 7532 32-Core Processor, instruction set [SSE2|AVX|AVX2]
Thread count: 64 physical cores, 128 logical processors, using up to 4 threads

Academic license 2399124 - for non-commercial use only - registered to yi___@ed.ac.uk
Optimize a model with 17005 rows, 3772 columns and 1276951 nonzeros
Model fingerprint: 0x63f437bb
Model has 301 quadratic constraints
Variable types: 3472 continuous, 300 integer (300 binary)
Coefficient statistics:
  Matrix range     [3e-04, 3e+03]
  QMatrix range    [2e-03, 5e+01]
  QLMatrix range   [1e-01, 6e+01]
  Objective range  [1e+00, 1e+00]
  Bounds range     [2e-01, 1e+00]
  RHS range        [5e-03, 7e+04]
  QRHS range       [5e-02, 5e-02]
Presolve removed 5129 rows and 1530 columns
Presolve time: 1.09s
Presolved: 12178 rows, 2543 columns, 258150 nonzeros
Presolved model has 300 quadratic constraint(s)
Presolved model has 1 bilinear constraint(s)
Warning: Model contains variables with very large bounds participating
         in product terms.
         Presolve was not able to compute smaller bounds for these variables.
         Consider bounding these variables or reformulating the model.


Solving non-convex MIQCP

Variable types: 2239 continuous, 304 integer (304 binary)

Root relaxation: objective 0.000000e+00, 1525 iterations, 0.28 seconds (0.81 work units)

    Nodes    |    Current Node    |     Objective Bounds      |     Work
 Expl Unexpl |  Obj  Depth IntInf | Incumbent    BestBd   Gap | It/Node Time

     0     0    0.00000    0    7          -    0.00000      -     -    1s
     0     0    0.00000    0    7          -    0.00000      -     -    3s
     0     0    0.00000    0    7          -    0.00000      -     -    4s
     0     0    0.00000    0    7          -    0.00000      -     -    4s
     0     0    0.00000    0    7          -    0.00000      -     -    4s
     0     0    0.00000    0    7          -    0.00000      -     -    4s
     0     0    0.00000    0    7          -    0.00000      -     -    4s
     0     0    0.00000    0    7          -    0.00000      -     -    4s
     0     0    0.00000    0    4          -    0.00000      -     -    5s
     0     0    0.00000    0    4          -    0.00000      -     -    5s
     0     0    0.00000    0    4          -    0.00000      -     -    5s
     0     0    0.00000    0    4          -    0.00000      -     -    5s
H    0     0                       0.0250000    0.00000   100%     -  491s
     0     2    0.00000    0    1    0.02500    0.00000   100%     -  493s
*    8     3               2       0.0060270    0.00000   100%  15.1  494s
*   16     5               3       0.0048563    0.00000   100%  19.1  494s
*   20     6               4       0.0040664    0.00000   100%  31.9  494s
*   23     6               7       0.0022132    0.00000   100%  34.9  494s
    29    11    0.00000    9    4    0.00221    0.00000   100%  37.3  495s
H   30    11                       0.0007390    0.00000   100%  36.0  495s
H   61    37                       0.0003631    0.00000   100%   124  497s
H   96    56                       0.0003630    0.00000   100%   115  498s
   171    97    0.00029   20    -    0.00036    0.00000   100%  79.4  500s
H  178   101                       0.0003624    0.00000   100%  87.3  500s
H  210   134                       0.0003624    0.00000   100%  75.9  500s
*  324   237              60       0.0003116    0.00000   100%  51.3  501s
*  329   237              49       0.0002906    0.00000   100%  51.6  501s
*  393   214              49       0.0002836    0.00000   100%  46.1  502s
   564   302    0.00012   15    3    0.00028    0.00010  65.8%  34.8  505s
H  566   287                       0.0002154    0.00019  12.3%  34.7  509s
   568   289    0.00022   27    9    0.00022    0.00021  1.27%  34.6  510s
H  583   286                       0.0002129    0.00021  0.10%  44.0  512s

Cutting planes:
  Gomory: 3
  MIR: 2

Explored 583 nodes (29502 simplex iterations) in 512.95 seconds (282.12 work units)
Thread count was 4 (of 128 available processors)

Solution count 10: 0.000212921 0.000215409 0.00028355 ... 0.00221318

Optimal solution found (tolerance 1.00e-03)
Best objective 2.129214485308e-04, best bound 2.127094329875e-04, gap 0.0996%
